NAME: tsp35_4
COMMENT: 35-tsp problem (Padberg/Rinaldi)
TYPE: TSP
DIMENSION: 35
EDGE_WEIGHT_TYPE : EUC_2D
NODE_COORD_SECTION
1 30 27
2 24 8
3 27 2
4 24 28
5 38 15
6 22 17
7 30 35
8 23 30
9 25 6
10 9 35
11 8 17
12 33 24
13 12 18
14 28 27
15 32 28
16 17 11
17 39 32
18 29 2
19 18 13
20 30 26
21 11 23
22 18 3
23 2 23
24 39 15
25 13 37
26 6 29
27 27 20
28 23 29
29 18 29
30 33 32
31 40 38
32 7 32
33 25 28
34 24 4
35 12 4
